20 3
9 5 5
0 0 0 0 9 2 3 4 5 7 9 10 11 19
11 4 2 2 1 8
16 2 2 2 1 17
14 4 2 2 1 6
10 3 2 2 1 6
10 4 2 2 2 18 14
7 2 2 2 1 18
7 2 2 2 3 13 15 12
19 2 2 2 1 20
9 3 2 2 1 13
10 4 2 2 1 20
8 4 2 2 1 17
16 2 2 2 1 18
8 5 2 2 1 16
5 5 2 2 1 18
8 3 2 2 1 20
15 5 2 2 1 20
12 5 2 2 1 20
8 2 2 2 1 20
0 0 0 0 0
